\* Question_3 *\
Maximize
Objective_func: 25 black + 25 blue + 15 green + 10 red
Subject To
Black_req: - black + ck + mk + yk = 0
Blue_req: - blue + cb + mb = 0
Cyan_req: cb + cg + ck + cr <= 11
Green_req: cg - green + yg = 0
Magenta_req: mb + mg + mk + mr <= 5
Red_req: mr - red + yr = 0
Yellow_req: yb + yg + yk + yr <= 10
Bounds
black free
blue free
cb free
cg free
ck free
cr free
green free
mb free
mg free
mk free
mr free
red free
yb free
yg free
yk free
yr free
End
